
List of user-set options:

                                    Name   Value                used
                           compl_inf_tol = 1                     yes
                         constr_viol_tol = 1                     yes
                            dual_inf_tol = 1000                  yes
                           linear_solver = ma97                  yes
                              ma86_small = 1e-30                  no
                                  ma86_u = 0.0001                 no
                              ma97_order = best                  yes
                              ma97_small = 1e-30                 yes
                            ma97_switch1 = at_start              yes
                            ma97_switch2 = od_hd_reuse           yes
                                  ma97_u = 1e-06                 yes
                               ma97_umax = 0.5                   yes
                                max_iter = 1000                  yes
                    max_refinement_steps = 20                    yes
                    min_refinement_steps = 5                     yes
                                 mu_init = 1e-06                 yes
           mu_superlinear_decrease_power = 1.25                  yes
                   nlp_scaling_min_value = 1e-08                 yes
                        option_file_name = Preset_Case:_33_NCP.opt  yes
                             output_file = ./tmp/Preset_Case:_33_NCP.output  yes
                      print_user_options = yes                   yes
        required_infeasibility_reduction = 1                      no
                                     tol = 1e-08                 yes
                   warm_start_bound_frac = 1e-20                 yes
                   warm_start_bound_push = 1e-20                 yes
                   warm_start_init_point = yes                   yes
              warm_start_mult_bound_push = 1e-20                 yes
                warm_start_mult_init_max = 1e+40                 yes
             warm_start_slack_bound_frac = 1e-20                 yes
             warm_start_slack_bound_push = 1e-20                 yes

******************************************************************************
This program contains Ipopt, a library for large-scale nonlinear optimization.
 Ipopt is released as open source code under the Eclipse Public License (EPL).
         For more information visit http://projects.coin-or.org/Ipopt
******************************************************************************

This is Ipopt version 3.12.10, running with linear solver ma97.

Number of nonzeros in equality constraint Jacobian...:   117167
Number of nonzeros in inequality constraint Jacobian.:      213
Number of nonzeros in Lagrangian Hessian.............:    47513

Total number of variables............................:    29977
                     variables with only lower bounds:    11312
                variables with lower and upper bounds:    15135
                     variables with only upper bounds:        0
Total number of equality constraints.................:    29864
Total number of inequality constraints...............:       25
        inequality constraints with only lower bounds:        4
   inequality constraints with lower and upper bounds:        0
        inequality constraints with only upper bounds:       21

iter    objective    inf_pr   inf_du lg(mu)  ||d||  lg(rg) alpha_du alpha_pr  ls
   0 -1.4891849e-01 1.70e-01 2.00e+00  -6.0 0.00e+00    -  0.00e+00 0.00e+00   0
In iteration 0, 9 Slacks too small, adjusting variable bounds
   1 -1.4891849e-01 1.70e-01 9.21e+02  -6.0 1.07e+10    -  9.20e-14 4.86e-19h  1
   2 -1.4891821e-01 1.70e-01 9.22e+02  -6.0 6.51e+01    -  4.14e-07 1.13e-05f  1
   3 -1.4891820e-01 1.70e-01 9.17e+02  -6.0 1.77e+01    -  2.46e-02 1.29e-06h  2
   4 -1.4891687e-01 1.70e-01 9.17e+02  -6.0 7.38e+01    -  8.24e-04 5.70e-05h  1
   5 -1.4876226e-01 1.67e-01 9.04e+02  -6.0 3.50e+01    -  9.30e-02 1.57e-02h  1
   6 -1.4747587e-01 1.48e-01 8.06e+02  -6.0 4.10e+01    -  1.80e-02 1.11e-01h  1
   7 -1.4747408e-01 1.48e-01 2.14e+04  -6.0 4.24e+01    -  8.21e-02 2.11e-04h  1
   8 -1.4656115e-01 1.35e-01 3.09e+03  -6.0 4.34e+01    -  1.37e-02 9.11e-02h  1
   9 -1.4642146e-01 1.26e-01 1.07e+04  -6.0 5.38e+01    -  1.05e-02 6.41e-02h  3
iter    objective    inf_pr   inf_du lg(mu)  ||d||  lg(rg) alpha_du alpha_pr  ls
  10 -1.4631239e-01 1.24e-01 7.02e+03  -6.0 4.16e+01    -  9.66e-02 1.88e-02h  1
  11 -1.4616685e-01 1.18e-01 1.52e+03  -6.0 4.80e+01    -  2.01e-02 4.70e-02h  3
  12 -1.4591871e-01 1.09e-01 2.73e+04  -6.0 4.59e+01    -  2.21e-01 7.26e-02h  2
  13 -1.4570558e-01 1.02e-01 3.15e+04  -6.0 4.48e+01    -  1.47e-01 6.92e-02h  2
  14 -1.4556347e-01 9.75e-02 4.26e+04  -6.0 4.28e+01    -  5.29e-01 4.26e-02h  3
  15 -1.4547245e-01 9.60e-02 3.49e+04  -6.0 5.15e+01    -  1.38e-01 1.54e-02h  6
  16 -1.4536497e-01 9.44e-02 1.14e+04  -6.0 5.77e+01    -  3.78e-01 1.61e-02h  6
  17 -1.4528230e-01 9.36e-02 1.61e+03  -6.0 8.05e+01    -  1.53e-01 9.08e-03h  7
  18 -1.4520661e-01 9.23e-02 1.38e+04  -6.0 3.47e+01  -4.0 3.26e-01 1.41e-02h  5
  19 -1.4518474e-01 9.16e-02 1.27e+04  -6.0 3.20e+01  -3.6 9.07e-02 7.28e-03h  6
iter    objective    inf_pr   inf_du lg(mu)  ||d||  lg(rg) alpha_du alpha_pr  ls
  20 -1.4517941e-01 9.07e-02 1.08e+04  -6.0 2.77e+01  -3.1 1.92e-02 1.02e-02h  6
  21 -1.4437710e-01 1.29e+00 3.86e+03  -6.0 4.34e+01  -3.6 5.31e-02 2.49e-01w  1
  22 -1.4181057e-01 2.09e+00 1.01e+04  -6.0 3.59e+01  -3.2 1.61e-01 2.61e-01w  1
  23 -1.4047438e-01 2.07e+00 4.99e+03  -6.0 1.78e+02  -3.7 1.24e-06 1.04e-02w  1
  24 -1.4515434e-01 9.00e-02 1.17e+04  -6.0 3.62e+01  -4.2 5.31e-02 7.77e-03h  5
  25 -1.4513225e-01 8.96e-02 1.54e+04  -6.0 7.49e+01  -3.7 7.06e-02 3.73e-03h  7
  26 -1.4512505e-01 8.89e-02 1.32e+04  -6.0 2.65e+01  -3.3 3.08e-02 8.39e-03h  6
  27 -1.4511703e-01 8.88e-02 1.53e+04  -6.0 2.08e+02  -3.8 2.84e-02 9.10e-04h  8
  28 -1.4510771e-01 8.81e-02 1.41e+04  -6.0 2.94e+01  -3.4 5.13e-01 7.81e-03h  6
  29 -1.4513973e-01 8.67e-02 2.00e+04  -6.0 2.63e+01  -2.9 3.51e-02 1.55e-02h  5
iter    objective    inf_pr   inf_du lg(mu)  ||d||  lg(rg) alpha_du alpha_pr  ls
  30 -1.4513201e-01 8.62e-02 6.59e+03  -6.0 4.59e+01  -3.4 2.47e-01 6.11e-03h  6
  31 -1.4515947e-01 8.51e-02 1.64e+04  -6.0 2.49e+01  -3.0 5.46e-02 1.28e-02h  5
  32 -1.4514852e-01 8.47e-02 3.20e+03  -6.0 5.69e+01  -3.5 1.32e-01 5.04e-03h  6
  33 -1.4517502e-01 8.37e-02 2.15e+04  -6.0 2.56e+01  -3.0 1.21e-01 1.16e-02h  5
  34 -1.4475884e-01 5.56e-01 3.61e+04  -6.0 7.01e+01  -3.5 1.31e-02 1.29e-01w  1
  35 -1.4364069e-01 9.96e-01 1.06e+04  -6.0 3.90e+01  -3.1 3.40e-01 2.00e-01w  1
  36 -1.4208792e-01 9.56e-01 1.82e+04  -6.0 5.12e+01  -3.6 6.46e-06 4.04e-02w  1
  37 -1.4516202e-01 8.33e-02 2.00e+04  -6.0 2.15e+01  -3.1 1.31e-02 4.05e-03h  5
  38 -1.4514801e-01 8.32e-02 1.47e+03  -6.0 1.54e+02  -3.6 1.12e-01 1.54e-03h  7
  39 -1.4516911e-01 8.24e-02 2.74e+03  -6.0 2.99e+01  -3.2 6.58e-02 9.89e-03h  5
iter    objective    inf_pr   inf_du lg(mu)  ||d||  lg(rg) alpha_du alpha_pr  ls
  40 -1.4515444e-01 8.21e-02 1.68e+04  -6.0 1.12e+02  -3.7 1.53e-01 3.30e-03h  6
  41 -1.4520108e-01 8.06e-02 1.54e+04  -6.0 2.74e+01  -3.2 6.89e-02 1.81e-02h  4
  42 -1.4519653e-01 8.01e-02 3.13e+04  -6.0 4.90e+01  -3.7 1.23e-01 6.52e-03h  5
  43 -1.4528630e-01 7.81e-02 3.04e+04  -6.0 2.67e+01  -3.3 2.14e-02 2.54e-02h  3
  44 -1.4532190e-01 7.67e-02 3.19e+04  -6.0 3.98e+01  -3.8 3.17e-02 1.75e-02h  3
  45 -1.4537171e-01 7.55e-02 6.65e+04  -6.0 2.68e+01  -3.3 5.56e-01 1.56e-02h  3
  46 -1.4542883e-01 7.37e-02 6.86e+04  -6.0 2.40e+01  -2.9 6.91e-01 2.35e-02h  3
  47 -1.4541753e-01 5.11e-01 1.28e+05  -6.0 2.54e+01  -3.4 4.65e-02 3.13e-01w  1
  48 -1.4345573e-01 3.86e-01 1.50e+05  -6.0 2.51e+01  -3.0 3.20e-02 9.07e-02w  1
  49 -1.4112247e-01 7.98e-01 3.97e+05  -6.0 2.20e+01  -3.4 7.12e-02 4.06e-01w  1
iter    objective    inf_pr   inf_du lg(mu)  ||d||  lg(rg) alpha_du alpha_pr  ls
  50 -1.4542812e-01 7.23e-02 5.90e+04  -6.0 2.03e+01  -3.0 4.65e-02 1.96e-02h  4
  51 -1.4492771e-01 6.94e-02 4.46e+04  -6.0 2.71e+01  -3.5 7.88e-02 4.06e-02h  3
  52 -1.4483557e-01 6.80e-02 3.43e+04  -6.0 2.21e+01  -3.1 7.64e-02 1.90e-02h  2
  53 -1.4443443e-01 6.60e-02 1.52e+04  -6.0 2.82e+01  -3.5 8.10e-02 3.03e-02h  3
  54 -1.4431410e-01 6.49e-02 4.91e+04  -6.0 2.13e+01  -3.1 3.24e-01 1.67e-02h  2
  55 -1.4428858e-01 6.48e-02 4.05e+04  -6.0 1.56e+02  -3.6 1.39e-01 1.32e-03h  7
  56 -1.4408943e-01 6.31e-02 4.40e+04  -6.0 2.18e+01  -3.2 5.54e-02 2.61e-02h  1
  57 -1.4408741e-01 6.31e-02 4.40e+04  -6.0 2.48e+03  -3.6 1.50e-02 9.54e-06h 10
  58 -1.4392817e-01 6.19e-02 4.32e+04  -6.0 2.44e+01  -3.2 2.55e-01 1.94e-02h  4
  59 -1.4384034e-01 6.09e-02 4.25e+04  -6.0 1.99e+01  -2.8 7.92e-01 1.52e-02h  5
iter    objective    inf_pr   inf_du lg(mu)  ||d||  lg(rg) alpha_du alpha_pr  ls
  60 -1.4376022e-01 5.99e-02 4.18e+04  -6.0 2.84e+01  -3.3 2.22e-02 1.65e-02h  4
  61 -1.4366509e-01 5.84e-02 4.07e+04  -6.0 2.00e+01  -2.8 3.14e-01 2.59e-02h  4
  62 -1.4361047e-01 5.76e-02 4.01e+04  -6.0 2.94e+01  -3.3 4.96e-02 1.42e-02h  4
  63 -1.4354606e-01 5.63e-02 3.92e+04  -6.0 2.04e+01  -2.9 8.67e-01 2.24e-02h  4
  64 -1.4351536e-01 5.54e-02 3.87e+04  -6.0 4.08e+01  -3.4 6.05e-02 1.49e-02h  4
  65 -1.4348079e-01 5.30e-02 3.70e+04  -6.0 2.15e+01  -2.9 3.42e-01 4.38e-02h  3
  66 -1.4346135e-01 5.26e-02 3.67e+04  -6.0 5.99e+01  -3.4 9.09e-02 8.08e-03h  5
  67 -1.4346590e-01 1.62e-01 2.99e+04  -6.0 2.13e+01  -3.0 1.37e-01 1.82e-01w  1
  68 -1.4335044e-01 2.81e-01 7.59e+04  -6.0 1.54e+01  -2.6 5.65e-01 3.11e-01w  1
  69 -1.4525417e-01 5.80e-01 2.33e+04  -6.0 1.35e+01  -3.0 1.49e-01 3.33e-01w  1
iter    objective    inf_pr   inf_du lg(mu)  ||d||  lg(rg) alpha_du alpha_pr  ls
  70 -1.4346248e-01 5.02e-02 3.50e+04  -6.0 8.20e+00  -2.6 1.37e-01 4.56e-02h  2
  71 -1.4350012e-01 4.92e-02 3.42e+04  -6.0 2.17e+01  -3.1 9.12e-02 2.16e-02h  4
  72 -1.4347354e-01 4.97e-02 3.69e+04  -6.0 1.58e+01  -2.7 6.93e-01 2.73e-02h  4
  73 -1.4362797e-01 5.44e-02 4.27e+04  -6.0 2.39e+01  -3.1 1.13e-01 3.76e-02h  4
  74 -1.4367611e-01 5.59e-02 9.23e+04  -6.0 1.70e+01  -2.7 5.20e-01 4.08e-02h  4
  75 -1.4381756e-01 5.76e-02 1.05e+05  -6.0 2.48e+01  -3.2 1.34e-01 2.26e-02h  5
  76 -1.4394585e-01 6.19e-02 2.20e+05  -6.0 1.71e+01  -2.8 1.00e+00 6.13e-02h  4
  77 -1.4413694e-01 6.32e-02 2.27e+05  -6.0 2.52e+01  -3.3 1.29e-01 1.94e-02h  5
  78 -1.4428328e-01 6.46e-02 3.03e+05  -6.0 1.67e+01  -2.8 1.00e+00 4.67e-02h  5
  79 -1.5279806e-01 3.91e+00 1.95e+05  -6.0 3.30e+01  -3.3 6.31e-02 2.57e-01H  1
iter    objective    inf_pr   inf_du lg(mu)  ||d||  lg(rg) alpha_du alpha_pr  ls
  80 -1.5279825e-01 3.91e+00 2.22e+05  -6.0 1.52e+01  -2.9 4.82e-02 1.83e-05h  1
  81 -1.5513551e-01 2.38e+00 4.62e+04  -6.0 8.53e+00  -2.5 9.38e-02 3.85e-01f  1
  82 -1.5654801e-01 2.14e+00 1.73e+05  -6.0 2.78e+01  -2.9 2.19e-01 9.50e-02h  1
  83 -1.5670892e-01 1.95e+00 6.98e+04  -6.0 3.85e+01  -2.5 9.74e-02 1.15e-01h  1
  84 -1.5558526e-01 8.11e-01 6.34e+04  -6.0 1.28e+01  -3.0 7.50e-07 4.06e-01h  1
  85 -1.5524608e-01 6.50e-01 1.15e+05  -6.0 2.02e+01  -2.6 1.32e-01 2.32e-01h  1
  86 -1.5524608e-01 6.50e-01 1.06e+06  -6.0 6.28e+00  -2.1 1.04e-01 4.09e-06h  2
  87 -1.5531245e-01 8.54e-02 1.97e+05  -6.0 4.13e+00  -2.6 8.12e-01 1.00e+00h  1
  88 -1.5552782e-01 3.25e-04 1.53e+05  -6.0 1.31e-01  -3.1 8.21e-01 1.00e+00h  1
  89 -1.5665164e-01 6.56e-03 8.99e+04  -6.0 6.19e-01  -3.6 4.19e-01 1.00e+00h  1
iter    objective    inf_pr   inf_du lg(mu)  ||d||  lg(rg) alpha_du alpha_pr  ls
  90 -1.5980192e-01 4.96e-02 2.73e+04  -6.0 1.72e+00  -4.0 6.90e-01 1.00e+00h  1
  91 -1.6430925e-01 1.47e-01 1.30e+04  -6.0 4.23e+00  -4.5 5.23e-01 6.30e-01h  1
  92 -1.6655977e-01 1.16e-01 5.40e+03  -6.0 9.09e+00  -5.0 5.25e-01 3.73e-01h  1
  93 -1.7140814e-01 2.81e-01 3.70e+03  -6.0 1.30e+01  -5.5 3.17e-01 4.95e-01f  1
  94 -1.7249800e-01 3.14e-01 2.62e+03  -6.0 3.23e+01  -5.9 3.51e-01 1.31e-01f  1
  95 -1.7392173e-01 1.24e+00 1.64e+03  -6.0 1.21e+02  -6.4 3.53e-01 6.25e-02f  1
  96 -1.7822326e-01 7.80e+00 1.47e+03  -6.0 2.00e+02  -6.9 7.48e-02 1.12e-01h  1
  97 -1.8170291e-01 1.84e+01 1.40e+03  -6.0 8.08e+02  -7.4 5.66e-02 4.56e-02h  1
Error in an AMPL evaluation. Run with "halt_on_ampl_error yes" to see details.
Warning: Cutting back alpha due to evaluation error
  98 -1.8205347e-01 1.82e+01 1.29e+03  -6.0 3.34e+02  -6.9 1.18e-01 1.10e-02h  2
  99 -1.8268429e-01 1.71e+01 1.13e+03  -6.0 8.05e+01  -6.5 2.89e-01 6.32e-02h  1
iter    objective    inf_pr   inf_du lg(mu)  ||d||  lg(rg) alpha_du alpha_pr  ls
 100 -1.8536675e-01 1.43e+01 5.88e+02  -6.0 7.08e+01  -7.0 1.00e+00 3.14e-01h  1
 101 -1.8657113e-01 1.25e+01 3.50e+02  -6.0 2.43e+02  -7.5 5.76e-01 1.68e-01h  1
 102 -1.8916999e-01 9.23e+00 2.37e+02  -6.0 4.10e+02  -8.0 3.76e-01 2.57e-01h  1
 103 -1.9194457e-01 8.14e+00 2.10e+02  -6.0 1.16e+03  -8.4 5.30e-01 1.18e-01h  1
 104 -1.9524361e-01 4.96e+00 1.28e+02  -6.0 4.49e+02  -8.0 1.00e+00 3.88e-01h  1
 105 -2.0097799e-01 3.69e+00 9.42e+01  -6.0 1.14e+03  -8.5 4.09e-01 2.62e-01h  1
 106 -2.0404509e-01 2.58e+00 2.54e+02  -6.0 7.18e+02  -8.1 2.59e-01 3.00e-01h  1
 107 -2.0217617e-01 4.17e+00 5.79e+03  -6.0 4.96e+02  -6.7 2.02e-01 9.21e-01h  1
 108 -2.0426933e-01 9.46e-01 1.29e+02  -6.0 2.29e+02  -7.2 3.14e-01 1.00e+00h  1
 109 -2.0433310e-01 6.91e-04 3.67e+00  -6.0 6.09e-01  -5.0 1.00e+00 1.00e+00h  1
iter    objective    inf_pr   inf_du lg(mu)  ||d||  lg(rg) alpha_du alpha_pr  ls
 110 -2.0436362e-01 7.23e-05 5.02e-01  -6.0 1.20e+00  -5.4 1.00e+00 1.00e+00h  1
 111 -2.0444882e-01 6.92e-04 2.84e-01  -6.0 3.66e+00  -5.9 1.00e+00 1.00e+00h  1
 112 -2.0472371e-01 7.62e-03 3.13e+00  -6.0 1.15e+01  -6.4 1.00e+00 1.00e+00h  1
 113 -2.0555271e-01 7.64e-02 7.78e+01  -6.0 9.37e+01  -6.9 1.00e+00 3.75e-01h  1
 114 -2.0493966e-01 4.94e-02 1.77e+02  -6.0 9.44e+00  -5.6 6.06e-02 3.58e-01h  1
 115 -2.0519353e-01 4.05e-02 4.76e+02  -6.0 7.19e+00  -5.1 1.00e+00 1.82e-01h  1
 116 -2.0523994e-01 4.00e-02 4.77e+02  -6.0 1.71e+01  -3.8 2.31e-02 1.21e-02h  1
 117 -2.0529423e-01 3.54e-02 6.38e+01  -6.0 5.04e+00  -4.3 1.00e+00 1.15e-01h  1
 118 -2.0524712e-01 2.70e-02 4.54e+01  -6.0 5.23e+00  -4.8 1.35e-01 2.37e-01h  1
 119 -2.0536016e-01 2.58e-02 7.12e+01  -6.0 2.11e+01  -5.2 2.45e-02 4.57e-02F  1
iter    objective    inf_pr   inf_du lg(mu)  ||d||  lg(rg) alpha_du alpha_pr  ls
 120 -2.0528037e-01 1.12e-02 5.12e+02  -6.0 1.00e+00  -3.9 7.44e-02 5.66e-01h  1
 121 -2.0528598e-01 3.66e-03 2.67e+02  -6.0 9.21e-01  -4.4 6.15e-02 1.00e+00f  1
 122 -2.0557480e-01 1.20e-02 3.19e+01  -6.0 1.10e+00  -4.9 5.63e-01 1.00e+00h  1
 123 -2.0589636e-01 3.43e-03 3.30e+01  -6.0 2.19e+00  -5.3 5.26e-01 1.00e+00h  1
 124 -2.0607308e-01 2.74e-02 2.11e+01  -6.0 8.93e+00  -5.8 2.91e-01 1.55e-01h  1
 125 -2.0636831e-01 3.56e-02 4.33e+01  -6.0 2.37e+01  -6.3 7.02e-01 1.27e-01h  1
 126 -2.0728036e-01 8.94e-02 3.93e+01  -6.0 4.07e+01  -6.8 7.18e-01 5.53e-01h  1
 127 -2.0833471e-01 1.06e-01 3.05e+01  -6.0 1.25e+02  -7.2 5.35e-01 6.41e-01h  1
 128 -2.1082626e-01 8.92e-01 1.29e+01  -6.0 3.97e+02  -7.7 2.19e-01 5.42e-01h  1
 129 -2.1220646e-01 7.72e-01 1.74e+01  -6.0 5.20e+02  -8.2 4.49e-01 1.47e-01h  1
iter    objective    inf_pr   inf_du lg(mu)  ||d||  lg(rg) alpha_du alpha_pr  ls
 130 -2.1515859e-01 8.95e-01 4.23e+00  -6.0 2.86e+02  -7.8 4.73e-01 7.06e-01h  1
 131 -2.1622798e-01 8.69e-01 5.57e+01  -6.0 1.54e+03  -8.2 4.17e-01 6.79e-02h  1
 132 -2.1807259e-01 7.42e-01 2.77e+01  -6.0 4.82e+02  -7.8 2.55e-02 3.29e-01h  1
 133 -2.2281038e-01 6.20e+00 1.92e+01  -6.0 9.00e+02  -8.3 3.29e-01 3.59e-01h  1
 134 -2.2342203e-01 6.41e+00 1.90e+01  -6.0 1.45e+04  -8.8 3.97e-03 4.42e-03h  1
 135 -2.2371332e-01 6.28e+00 1.77e+01  -6.0 6.65e+02  -8.3 2.05e-01 3.07e-02h  1
 136 -2.2719597e-01 7.61e+00 2.43e+01  -6.0 2.45e+03  -8.8 3.97e-01 1.58e-01h  1
 137 -2.3206891e-01 8.26e+00 1.42e+01  -6.0 5.75e+02  -8.4 1.00e+00 6.18e-01h  1
 138 -2.3535620e-01 6.14e+00 1.46e+01  -6.0 1.78e+03  -8.9 3.84e-01 2.80e-01h  1
 139 -2.3564057e-01 5.79e+00 1.57e+02  -6.0 1.14e+03  -8.4 4.95e-02 6.22e-02h  1
iter    objective    inf_pr   inf_du lg(mu)  ||d||  lg(rg) alpha_du alpha_pr  ls
 140 -2.3624221e-01 5.36e+00 3.46e+03  -6.0 8.25e+02  -8.9 5.48e-01 7.79e-02f  1
 141 -2.3769773e-01 5.64e+00 3.03e+06  -6.0 4.93e+02  -8.5 6.04e-04 3.79e-01h  1
 142 -2.3890174e-01 1.60e+00 2.51e+03  -6.0 2.26e+02  -8.1 1.48e-01 1.00e+00h  1
 143 -2.3888264e-01 1.61e+00 1.41e+03  -6.0 3.82e+01  -6.7 8.78e-02 4.48e-01h  1
 144 -2.3887665e-01 1.64e+00 1.37e+03  -6.0 6.16e+01  -7.2 1.00e-03 2.46e-02h  4
 145 -2.3888821e-01 1.27e+00 1.03e+03  -6.0 6.03e+00  -5.9 2.10e-01 2.52e-01h  1
 146 -2.3931726e-01 4.79e+00 5.87e+01  -6.0 1.18e+01  -6.4 2.78e-01 1.00e+00f  1
 147 -2.3957715e-01 6.63e+00 5.89e+01  -6.0 1.95e+02  -6.8 5.03e-02 3.72e-02h  1
 148 -2.3961278e-01 6.40e+00 2.88e+01  -6.0 2.94e+01  -7.3 4.75e-01 5.25e-02h  1
 149 -2.3990644e-01 1.86e+00 2.87e+00  -6.0 7.10e+01  -7.8 1.00e+00 7.14e-01h  1
iter    objective    inf_pr   inf_du lg(mu)  ||d||  lg(rg) alpha_du alpha_pr  ls
 150 -2.4090474e-01 9.39e-01 4.29e+00  -6.0 1.87e+02  -8.3 7.65e-01 7.11e-01h  1
 151 -2.4118387e-01 8.44e-01 4.38e+02  -6.0 3.55e+02  -8.8 1.00e+00 1.06e-01h  1
 152 -2.4204623e-01 7.73e-01 4.26e+02  -6.0 8.90e+02  -9.2 5.26e-01 1.54e-01h  1
 153 -2.4395669e-01 1.33e+00 1.12e+02  -6.0 3.41e+02  -8.8 1.00e+00 8.08e-01h  1
 154 -2.4555442e-01 4.02e+00 2.79e+02  -6.0 1.26e+03  -9.3 4.44e-01 3.26e-01h  1
 155 -2.4684475e-01 4.52e+00 9.82e+02  -6.0 7.96e+02  -8.9 6.15e-02 5.99e-01h  1
 156 -2.4914863e-01 1.60e+01 7.06e+02  -6.0 1.82e+03  -9.3 6.52e-01 4.57e-01h  1
 157 -2.5005255e-01 6.04e+00 4.23e+03  -6.0 5.07e+02  -8.9 6.13e-02 7.55e-01h  1
 158 -2.5070913e-01 4.08e+00 9.53e+03  -6.0 3.44e+03  -8.5 4.40e-05 3.68e-01H  1
 159 -2.5194519e-01 6.27e+00 1.93e+04  -6.0 9.88e+02  -9.0 9.68e-02 4.23e-01h  1
iter    objective    inf_pr   inf_du lg(mu)  ||d||  lg(rg) alpha_du alpha_pr  ls
 160 -2.5403776e-01 1.83e+01 5.29e+05  -6.0 3.99e+03  -9.4 3.55e-03 1.91e-01h  1
 161 -2.5408516e-01 1.83e+01 5.26e+05  -6.0 3.33e+03  -9.9 1.96e-02 5.21e-03h  1
 162 -2.5472574e-01 6.71e+00 1.76e+05  -6.0 9.65e+02  -9.5 4.65e-02 6.65e-01f  1
 163 -2.5507042e-01 6.75e+00 1.65e+05  -6.0 2.34e+03 -10.0 5.78e-02 6.35e-02h  1
 164 -2.5532244e-01 2.19e+01 1.25e+05  -6.0 3.85e+03 -10.4 1.75e-01 2.40e-01h  1
 165 -2.5532327e-01 1.24e+01 6.24e+04  -6.0 1.36e+03 -10.0 5.62e-01 5.02e-01h  1
 166 -2.5525247e-01 5.62e+00 2.82e+04  -6.0 3.24e+00  -6.0 3.30e-01 5.48e-01h  1
 167 -2.5535259e-01 9.39e-01 4.70e+03  -6.0 2.80e+00  -6.5 1.69e-01 8.33e-01h  1
 168 -2.5544628e-01 1.26e+01 4.37e+03  -6.0 1.36e+04    -  5.43e-02 7.13e-02h  1
 169 -2.5567394e-01 2.50e+01 3.76e+03  -6.0 8.00e+03    -  3.33e-01 1.41e-01f  1
iter    objective    inf_pr   inf_du lg(mu)  ||d||  lg(rg) alpha_du alpha_pr  ls
 170 -2.5564924e-01 2.55e-01 1.32e+05  -6.0 1.77e+02  -6.9 3.19e-02 1.00e+00h  1
 171 -2.5561943e-01 1.38e-03 2.28e+02  -6.0 2.16e+00  -6.5 9.50e-01 1.00e+00h  1
 172 -2.5566619e-01 2.43e-02 1.45e+02  -6.0 6.75e+00  -7.0 7.51e-01 3.78e-01h  1
 173 -2.5564835e-01 6.94e-03 1.43e-01  -6.0 1.60e+01  -7.5 1.00e+00 1.00e+00f  1
 174 -2.5564222e-01 1.66e-02 3.24e-02  -6.0 3.05e+01  -7.9 1.00e+00 1.00e+00h  1
 175 -2.5564193e-01 1.15e-01 6.37e-02  -6.0 8.06e+01  -8.4 1.00e+00 1.00e+00h  1
 176 -2.5566120e-01 8.02e-01 4.15e-01  -6.0 2.13e+02  -8.9 1.00e+00 1.00e+00h  1
 177 -2.5568959e-01 1.37e-01 1.37e-01  -6.0 8.93e+01  -8.5 1.00e+00 1.00e+00h  1
 178 -2.5570445e-01 2.14e-02 1.47e-02  -6.0 3.53e+01  -8.0 1.00e+00 1.00e+00h  1
 179 -2.5570579e-01 1.86e-02 2.79e-01  -6.0 5.31e+01  -7.6 2.65e-01 1.36e-01h  1
iter    objective    inf_pr   inf_du lg(mu)  ||d||  lg(rg) alpha_du alpha_pr  ls
 180 -2.5568852e-01 1.34e-01 3.25e+00  -6.0 5.82e+01  -8.1 2.17e-01 1.00e+00f  1
 181 -2.5568364e-01 6.04e-02 2.48e+00  -6.0 1.25e+01  -6.8 4.51e-01 5.92e-01h  1
 182 -2.5571383e-01 1.91e+00 2.67e+00  -6.0 3.59e+01  -7.2 5.02e-01 1.00e+00h  1
 183 -2.5587116e-01 2.85e+00 5.00e+00  -6.0 2.96e+01  -6.8 4.86e-01 1.00e+00h  1
 184 -2.5612804e-01 6.06e+00 4.71e+00  -6.0 1.66e+01  -6.4 1.00e+00 1.00e+00h  1
 185 -2.5626968e-01 7.53e+00 2.48e+01  -6.0 6.98e+01  -6.9 4.58e-01 1.06e-01h  1
 186 -2.5629609e-01 4.83e+00 1.33e+01  -6.0 1.29e+01  -7.3 1.00e+00 3.65e-01h  1
 187 -2.5633752e-01 1.99e-02 2.12e-02  -6.0 2.80e+01  -7.8 1.00e+00 1.00e+00h  1
 188 -2.5636354e-01 1.80e-02 5.27e-02  -6.0 1.17e+02  -8.3 9.70e-01 9.38e-01h  1
 189 -2.5639365e-01 1.19e-01 1.93e-02  -6.0 8.29e+01  -8.8 1.00e+00 1.00e+00f  1
iter    objective    inf_pr   inf_du lg(mu)  ||d||  lg(rg) alpha_du alpha_pr  ls
 190 -2.5693121e-01 2.95e+01 2.76e+01  -6.0 2.33e+05    -  7.85e-03 1.98e-02h  1
 191 -2.5723748e-01 3.11e+01 1.01e+02  -6.0 1.86e+04    -  2.75e-01 2.16e-01h  1
 192 -2.5723958e-01 3.09e+01 1.16e+02  -6.0 1.19e+04  -9.3 2.90e-06 8.39e-03H  1
 193 -2.5751021e-01 1.84e+01 7.01e+01  -6.0 8.49e+02  -9.7 4.56e-01 4.66e-01h  1
 194 -2.5760014e-01 1.71e+01 2.15e+02  -6.0 1.30e+04    -  4.19e-01 7.02e-02h  1
 195 -2.5780955e-01 1.12e+01 1.24e+02  -6.0 1.25e+03 -10.2 3.82e-01 3.48e-01h  1
 196 -2.5778424e-01 3.22e+01 6.59e+01  -6.0 1.39e+04    -  4.67e-02 1.00e-01h  1
 197 -2.5790380e-01 3.79e+01 9.44e+01  -6.0 3.87e+04    -  1.83e-02 3.95e-02h  1
 198 -2.5801907e-01 3.08e+01 1.07e+02  -6.0 6.27e+02  -9.8 3.71e-02 1.91e-01h  1
 199 -2.5806536e-01 3.04e+01 9.76e+01  -6.0 2.93e+04    -  7.07e-02 1.23e-02h  1
iter    objective    inf_pr   inf_du lg(mu)  ||d||  lg(rg) alpha_du alpha_pr  ls
 200 -2.5842417e-01 2.60e+01 7.27e+01  -6.0 1.89e+04    -  2.29e-01 1.45e-01h  1
 201 -2.5867481e-01 2.55e+01 7.21e+01  -6.0 1.00e+04    -  2.69e-03 1.96e-02h  1
 202 -2.5885247e-01 2.25e+01 6.96e+01  -6.0 1.61e+03    -  3.38e-02 1.19e-01h  1
 203 -2.5889768e-01 2.24e+01 6.83e+01  -6.0 1.41e+03  -8.5 1.70e-02 4.12e-03h  1
 204 -2.5926432e-01 2.02e+01 6.73e+01  -6.0 2.32e+02  -8.0 2.72e-02 1.02e-01h  1
 205 -2.5941575e-01 1.46e+01 5.56e+01  -6.0 1.98e+03    -  1.96e-01 2.78e-01h  1
 206 -2.5943286e-01 1.40e+01 4.54e+01  -6.0 2.82e+02  -8.5 4.19e-01 4.07e-02h  1
 207 -2.5952290e-01 1.02e+01 6.11e+01  -6.0 8.60e+02    -  8.58e-01 4.71e-01h  1
 208 -2.5967607e-01 1.17e+00 1.40e+02  -6.0 1.46e+02  -9.0 2.09e-01 1.00e+00h  1
 209 -2.5983196e-01 5.92e-01 3.20e+02  -6.0 1.37e+02  -9.5 2.24e-01 5.15e-01h  1
iter    objective    inf_pr   inf_du lg(mu)  ||d||  lg(rg) alpha_du alpha_pr  ls
 210 -2.5994385e-01 8.51e-01 8.87e+01  -6.0 3.74e+02  -9.9 5.72e-01 5.34e-01h  1
 211 -2.5997489e-01 1.41e+00 1.25e+03  -6.0 1.34e+03 -10.4 6.14e-01 1.45e-01h  2
 212 -2.5997658e-01 1.41e+00 8.96e+02  -6.0 6.24e+03 -10.0 3.21e-02 4.84e-04H  1
 213 -2.5998344e-01 2.56e+00 1.41e+03  -6.0 9.11e+03    -  2.66e-01 4.91e-02f  1
 214 -2.6001639e-01 2.50e+00 1.13e+03  -6.0 1.17e+03    -  9.39e-02 1.36e-01h  1
 215 -2.6014656e-01 7.22e+00 5.36e+02  -6.0 1.13e+03    -  5.49e-01 5.39e-01h  1
 216 -2.6025955e-01 3.70e+00 2.48e+03  -6.0 2.04e+02  -9.6 1.79e-01 5.11e-01h  1
 217 -2.6032434e-01 3.05e+00 8.48e+02  -6.0 2.99e+02 -10.0 2.41e-01 1.88e-01h  1
 218 -2.6038153e-01 2.87e+00 1.42e+06  -6.0 7.87e+02 -10.5 3.54e-03 4.15e-01h  1
 219 -2.6034408e-01 3.88e+00 1.24e+03  -6.0 4.73e+02 -11.0 3.83e-01 1.00e+00h  1
iter    objective    inf_pr   inf_du lg(mu)  ||d||  lg(rg) alpha_du alpha_pr  ls
 220 -2.6036046e-01 2.36e+00 7.28e+02  -6.0 3.08e+02    -  8.00e-01 4.10e-01h  1
 221 -2.6042359e-01 1.22e+01 3.05e+01  -6.0 8.22e+02    -  5.13e-01 1.00e+00h  1
 222 -2.6042706e-01 1.14e+01 2.12e+01  -6.0 1.53e+03  -9.7 1.50e-01 8.66e-02h  1
 223 -2.6040901e-01 2.69e+00 1.60e+01  -6.0 6.07e+02    -  1.96e-01 1.00e+00h  1
 224 -2.6030606e-01 2.49e+00 2.67e+01  -6.0 3.72e+02    -  4.07e-01 1.00e+00h  1
 225 -2.6037315e-01 4.74e-01 1.40e+00  -6.0 3.06e+02    -  1.00e+00 1.00e+00h  1
 226 -2.6039416e-01 5.17e-02 9.06e-01  -6.0 7.59e+01    -  7.98e-01 1.00e+00h  1
 227 -2.6039532e-01 2.69e-02 4.99e-04  -6.0 1.52e+01    -  1.00e+00 1.00e+00h  1
 228 -2.6039502e-01 4.59e-03 7.08e-05  -6.0 6.34e+00    -  1.00e+00 1.00e+00h  1
 229 -2.6039500e-01 3.34e-06 9.00e-08  -6.0 1.68e-01    -  1.00e+00 1.00e+00h  1
iter    objective    inf_pr   inf_du lg(mu)  ||d||  lg(rg) alpha_du alpha_pr  ls
 230 -2.6092263e-01 1.88e+00 3.70e+01  -7.5 2.06e+03    -  3.55e-01 2.25e-01h  1
 231 -2.6099113e-01 1.86e+00 5.70e+01  -7.5 2.08e+03    -  1.59e-01 4.19e-02h  1
 232 -2.6100723e-01 1.83e+00 1.15e+02  -7.5 2.91e+02  -9.2 3.94e-01 1.32e-02h  1
 233 -2.6146613e-01 5.49e+00 5.99e+01  -7.5 2.54e+03    -  4.24e-03 2.90e-01h  1
 234 -2.6152427e-01 5.07e+00 8.00e+01  -7.5 2.34e+02  -9.7 3.96e-01 7.58e-02h  1
 235 -2.6166225e-01 4.71e+00 6.08e+01  -7.5 2.02e+03    -  2.30e-02 1.50e-01h  1
 236 -2.6184821e-01 6.21e+00 3.32e+01  -7.5 2.05e+03    -  2.84e-02 2.52e-01h  1
 237 -2.6190028e-01 5.63e+00 7.35e+01  -7.5 1.59e+03    -  6.23e-01 9.54e-02h  1
 238 -2.6209527e-01 3.91e+00 3.26e+01  -7.5 1.67e+03    -  1.88e-01 4.07e-01h  1
 239 -2.6218309e-01 2.54e+00 6.05e+01  -7.5 3.47e+02 -10.2 1.00e+00 3.54e-01h  1
iter    objective    inf_pr   inf_du lg(mu)  ||d||  lg(rg) alpha_du alpha_pr  ls
 240 -2.6221767e-01 2.18e+00 4.94e+01  -7.5 8.64e+02 -10.7 1.49e-01 1.82e-01h  1
 241 -2.6234541e-01 1.03e+00 5.57e+01  -7.5 9.34e+02 -11.1 1.00e+00 6.23e-01h  1
 242 -2.6240838e-01 2.39e+00 5.87e+01  -7.5 7.85e+02 -11.6 2.62e-01 6.00e-01h  1
 243 -2.6243503e-01 1.47e+00 1.71e+02  -7.5 7.50e+02 -12.1 2.26e-01 4.45e-01h  1
 244 -2.6247928e-01 3.16e+00 7.11e+02  -7.5 4.06e+02 -11.7 2.07e-01 8.05e-01h  1
 245 -2.6252609e-01 6.68e-01 1.56e+03  -7.5 1.89e+02    -  4.27e-01 9.02e-01h  1
 246 -2.6201716e-01 1.33e-01 7.25e+06  -7.5 3.89e+02    -  2.15e-04 7.85e-01H  1
 247 -2.6270446e-01 4.15e+00 2.17e+06  -7.5 7.44e+02    -  4.46e-02 7.01e-01f  1
 248 -2.6257351e-01 2.71e+00 1.92e+02  -7.5 4.75e+02    -  8.88e-01 1.00e+00h  1
 249 -2.6254203e-01 2.31e+00 2.20e+00  -7.5 6.08e+02    -  2.58e-01 9.75e-01H  1
iter    objective    inf_pr   inf_du lg(mu)  ||d||  lg(rg) alpha_du alpha_pr  ls
 250 -2.6254186e-01 2.55e+00 2.16e+00  -7.5 8.06e+03    -  1.14e-02 1.91e-02h  5
 251 -2.6252653e-01 5.35e-01 1.52e-02  -7.5 7.07e+02 -12.1 1.00e+00 1.00e+00H  1
 252 -2.6252747e-01 1.97e+00 1.17e+00  -7.5 4.17e+03 -12.6 7.07e-01 8.22e-02h  4
 253 -2.6252793e-01 3.34e+00 4.17e+00  -7.5 1.31e+04    -  5.60e-01 2.55e-02h  4
 254 -2.6253414e-01 2.34e+00 4.88e-01  -7.5 7.13e+02    -  1.00e+00 1.00e+00H  1
 255 -2.6253431e-01 3.60e+00 1.39e+00  -7.5 1.62e+04 -13.1 1.37e-01 1.93e-02h  4
 256 -2.6253449e-01 4.67e+00 1.42e+00  -7.5 5.25e+03    -  2.91e-01 5.87e-02h  4
 257 -2.6254076e-01 7.81e+01 1.18e-01  -7.5 2.40e+03    -  1.00e+00 1.00e+00h  1
 258 -2.6253734e-01 4.07e+01 1.70e+00  -7.5 7.44e+02    -  7.36e-02 5.00e-01h  2
 259 -2.6253404e-01 3.11e-02 1.08e+00  -7.5 1.77e+01 -10.9 3.31e-01 1.00e+00h  1
iter    objective    inf_pr   inf_du lg(mu)  ||d||  lg(rg) alpha_du alpha_pr  ls
 260 -2.6253401e-01 3.00e-02 1.10e-04  -7.5 1.61e+01    -  1.00e+00 1.00e+00h  1
 261 -2.6253403e-01 2.04e-02 2.66e-05  -7.5 2.95e+01 -10.4 1.00e+00 1.00e+00H  1
 262 -2.6253412e-01 7.33e-01 3.40e-02  -7.5 1.04e+03    -  7.35e-02 1.25e-01h  4
 263 -2.6253416e-01 5.51e-02 1.12e-04  -7.5 5.07e+01 -10.9 1.00e+00 1.00e+00h  1
 264 -2.6253514e-01 2.26e+00 1.90e-01  -7.5 1.03e+03    -  7.88e-01 1.00e+00H  1
 265 -2.6253543e-01 2.89e+00 9.26e-03  -7.5 4.26e+02    -  1.00e+00 1.00e+00h  1
 266 -2.6253541e-01 1.16e-02 7.44e-05  -7.5 2.98e+01    -  1.00e+00 1.00e+00h  1
 267 -2.6253541e-01 2.48e-05 9.97e-08  -7.5 1.23e+00    -  1.00e+00 1.00e+00h  1
 268 -2.6253541e-01 1.71e-10 4.98e-13  -7.5 1.83e-04    -  1.00e+00 1.00e+00h  1
 269 -2.6253690e-01 6.46e-01 4.24e+00  -9.0 1.73e+03    -  5.16e-01 1.16e-01h  1
iter    objective    inf_pr   inf_du lg(mu)  ||d||  lg(rg) alpha_du alpha_pr  ls
 270 -2.6253930e-01 3.64e+01 3.46e+00  -9.0 7.05e+03    -  2.36e-01 2.12e-01h  1
 271 -2.6254094e-01 4.84e+01 2.11e+00  -9.0 3.47e+03    -  2.95e-01 3.40e-01h  1
 272 -2.6254257e-01 3.89e+01 7.29e+01  -9.0 1.55e+03    -  4.53e-02 7.81e-01h  1
 273 -2.6254266e-01 3.83e+01 7.26e+01  -9.0 5.47e+03    -  1.69e-02 3.68e-02h  1
 274 -2.6254268e-01 3.72e+01 5.03e+01  -9.0 1.67e+03    -  3.85e-01 2.84e-02h  1
 275 -2.6254301e-01 3.09e+01 6.86e+03  -9.0 1.61e+03    -  1.72e-03 4.16e-01h  1
 276 -2.6254362e-01 3.87e+01 1.26e+03  -9.0 1.53e+03    -  1.59e-02 8.16e-01h  1
 277 -2.6254368e-01 2.87e+01 7.80e+02  -9.0 1.55e+03    -  1.37e-01 3.81e-01h  1
 278 -2.6254386e-01 2.66e+01 5.65e+02  -9.0 1.81e+03    -  4.25e-01 2.76e-01h  1
 279 -2.6254402e-01 2.22e+01 4.02e+02  -9.0 1.26e+03    -  4.90e-02 2.89e-01h  1
iter    objective    inf_pr   inf_du lg(mu)  ||d||  lg(rg) alpha_du alpha_pr  ls
 280 -2.6254403e-01 2.02e+01 3.66e+02  -9.0 5.59e+02    -  3.64e-02 8.98e-02h  1
 281 -2.6254406e-01 1.63e+01 2.95e+02  -9.0 5.36e+02    -  2.20e-01 1.94e-01h  1
 282 -2.6254407e-01 1.48e+01 2.67e+02  -9.0 5.98e+02    -  4.72e-02 9.46e-02h  1
 283 -2.6254419e-01 4.13e-01 2.25e+00  -9.0 1.75e+02    -  1.03e-01 1.00e+00h  1
 284 -2.6254421e-01 2.96e+00 2.90e-01  -9.0 3.72e+02    -  7.36e-01 1.00e+00h  1
 285 -2.6254421e-01 1.59e-01 1.98e-01  -9.0 6.60e+01    -  3.18e-01 1.00e+00h  1
 286 -2.6254421e-01 1.11e-01 1.12e-06  -9.0 4.51e+01 -11.4 1.00e+00 1.00e+00h  1
 287 -2.6254454e-01 8.25e+01 2.90e-02  -9.0 2.65e+04    -  1.04e-02 1.00e-01h  1
 288 -2.6254443e-01 7.00e+01 4.02e-02  -9.0 3.06e+03    -  7.07e-01 2.21e-01h  3
 289 -2.6254455e-01 1.19e+00 5.76e-02  -9.0 2.36e+02 -11.9 2.62e-01 1.00e+00h  1
iter    objective    inf_pr   inf_du lg(mu)  ||d||  lg(rg) alpha_du alpha_pr  ls
 290 -2.6254505e-01 8.96e+01 5.56e-02  -9.0 2.98e+04    -  7.74e-02 8.87e-02h  1
 291 -2.6254488e-01 6.09e+01 3.28e-02  -9.0 1.94e+03    -  4.92e-01 4.13e-01h  1
 292 -2.6254460e-01 2.59e+01 3.28e-01  -9.0 1.43e+03    -  2.61e-03 1.00e+00h  1
 293 -2.6254476e-01 5.36e+00 5.61e-04  -9.0 6.16e+02    -  1.00e+00 1.00e+00h  1
 294 -2.6254486e-01 2.92e+00 3.13e-04  -9.0 4.63e+02 -12.4 1.00e+00 1.00e+00h  1
 295 -2.6254527e-01 4.08e+01 4.05e-03  -9.0 1.74e+03 -12.8 1.00e+00 1.00e+00h  1
 296 -2.6254530e-01 1.30e-02 7.97e-03  -9.0 6.09e+01    -  9.82e-02 1.00e+00h  1
 297 -2.6254535e-01 6.00e-01 5.21e-05  -9.0 1.62e+02 -11.5 1.00e+00 1.00e+00h  1
 298 -2.6254542e-01 9.68e-01 1.29e-04  -9.0 2.48e+02 -12.0 1.00e+00 1.00e+00h  1
 299 -2.6254558e-01 7.54e+00 9.05e-03  -9.0 5.48e+02    -  5.33e-02 1.00e+00h  1
iter    objective    inf_pr   inf_du lg(mu)  ||d||  lg(rg) alpha_du alpha_pr  ls
 300 -2.6254589e-01 1.61e+01 2.63e-03  -9.0 1.03e+03 -12.5 1.00e+00 1.00e+00h  1
 301 -2.6254642e-01 6.00e+01 1.06e-02  -9.0 3.86e+05    -  4.45e-03 4.34e-03h  1
 302 -2.6254622e-01 6.28e+00 1.04e-03  -9.0 6.65e+02    -  1.00e+00 1.00e+00h  1
 303 -2.6254680e-01 6.03e+01 5.45e-02  -9.0 7.07e+03    -  2.49e-01 2.60e-01h  1
 304 -2.6254727e-01 3.50e+01 5.00e-01  -9.0 1.63e+03    -  2.16e-02 8.64e-01H  1
 305 -2.6254729e-01 1.48e+00 4.08e+02  -9.0 2.38e+02    -  6.91e-03 1.00e+00h  1
 306 -2.6254773e-01 3.11e+01 3.42e+01  -9.0 1.60e+03    -  3.01e-01 9.16e-01H  1
Error in an AMPL evaluation. Run with "halt_on_ampl_error yes" to see details.
Warning: Cutting back alpha due to evaluation error
 307 -2.6254772e-01 3.10e+01 3.40e+01  -9.0 1.18e+04    -  3.61e-02 6.25e-03h  5
 308 -2.6254778e-01 1.85e+01 1.62e+01  -9.0 7.27e+02    -  1.35e-01 5.21e-01h  1
 309 -2.6254775e-01 1.82e+01 1.51e+01  -9.0 2.90e+03    -  2.42e-02 6.78e-02h  3
iter    objective    inf_pr   inf_du lg(mu)  ||d||  lg(rg) alpha_du alpha_pr  ls
 310 -2.6254771e-01 3.10e-01 2.91e-01  -9.0 1.32e+02 -12.9 7.09e-01 1.00e+00h  1
 311 -2.6254773e-01 2.15e-01 1.30e-04  -9.0 9.53e+01    -  1.00e+00 1.00e+00h  1
 312 -2.6254772e-01 3.45e-03 7.26e-07  -9.0 1.23e+01    -  1.00e+00 1.00e+00h  1
 313 -2.6254772e-01 1.20e-07 9.38e-11  -9.0 6.76e-02    -  1.00e+00 1.00e+00h  1
 314 -2.6254772e-01 2.80e-10 1.72e-14  -9.0 2.20e-05    -  1.00e+00 1.00e+00h  1

Number of Iterations....: 314

                                   (scaled)                 (unscaled)
Objective...............:  -2.6254772463005449e-01   -2.6254772463005449e-01
Dual infeasibility......:   1.7208456881689926e-14    1.7208456881689926e-14
Constraint violation....:   2.7957161835134164e-10    2.7957161835134164e-10
Complementarity.........:   9.0909091593897051e-10    9.0909091593897051e-10
Overall NLP error.......:   9.0909091593897051e-10    9.0909091593897051e-10


Number of objective function evaluations             = 703
Number of objective gradient evaluations             = 315
Number of equality constraint evaluations            = 705
Number of inequality constraint evaluations          = 704
Number of equality constraint Jacobian evaluations   = 315
Number of inequality constraint Jacobian evaluations = 315
Number of Lagrangian Hessian evaluations             = 314
Total CPU secs in IPOPT (w/o function evaluations)   =    743.358
Total CPU secs in NLP function evaluations           =     15.525

EXIT: Optimal Solution Found.
